*SENSE:Maximize
NAME          MODEL
ROWS
 N  OBJ
 L  C0000000
 L  C0000001
 L  C0000002
 L  C0000003
COLUMNS
    X0000000  C0000000   1.000000000000e+00
    X0000000  C0000001   2.000000000000e+00
    X0000000  C0000002   1.000000000000e+00
    X0000000  OBJ        3.000000000000e+00
    X0000001  C0000000   1.000000000000e+00
    X0000001  C0000001   1.000000000000e+00
    X0000001  C0000003   1.000000000000e+00
    X0000001  OBJ        2.000000000000e+00
RHS
    RHS       C0000000   8.000000000000e+01
    RHS       C0000001   1.000000000000e+02
    RHS       C0000002   4.000000000000e+01
    RHS       C0000003   inf
BOUNDS
ENDATA
